33D32945 STP File, STP Format Version 1.0

SECTION Comments
Name "edge_n13_d4_s32"
Problem "Euclidean Steiner Tree Problem"
Remark "Generated with STPGenerator. 4 dimensions."
END

SECTION Graph
Nodes 13
END

SECTION Coordinates
DDDD 0 0.4496756841 0.4496756841 0.4496756841 0.4496756841
DDDD 1 0.6990365287 0.6990365287 0.6990365287 0.6990365287
DDDD 2 0.6652369316 0.6652369316 0.6652369316 0.6652369316
DDDD 3 0.7215187111 0.7215187111 0.7215187111 0.7215187111
DDDD 4 0.8656997224 0.8656997224 0.8656997224 0.8656997224
DDDD 5 0.5431189162 0.5431189162 0.5431189162 0.5431189162
DDDD 6 0.5266172777 0.5266172777 0.5266172777 0.5266172777
DDDD 7 0.9129774263 0.9129774263 0.9129774263 0.9129774263
DDDD 8 0.7480876026 0.7480876026 0.7480876026 0.7480876026
DDDD 9 0.1786557348 0.1786557348 0.1786557348 0.1786557348
DDDD 10 0.2697567126 0.2697567126 0.2697567126 0.2697567126
DDDD 11 0.1478463012 0.1478463012 0.1478463012 0.1478463012
DDDD 12 0.3054385443 0.3054385443 0.3054385443 0.3054385443
END
